% From JaCoP's nonogramRepository/data103.nin
 rows = 15;
 row_rule_len = 2;
 row_rules = array2d(1..rows, 1..row_rule_len, 
[
 0,5,
 1,1,
 2,3,
 1,1,
 1,1,
 1,1,
 1,1,
 1,1,
 1,1,
 0,11,
 3,8,
 3,10,
 2,10,
 2,9,
 0,13
]);

 cols = 15;
 col_rule_len = 5;
 col_rules = array2d(1..cols, 1..col_rule_len, 
[
 0,0,0,0,3,
 0,0,0,0,5,
 0,0,0,3,1,
 0,0,0,3,1,
 0,2,1,1,1,
 1,5,1,2,1,
 0,0,0,1,6,
 0,0,0,1,6,
 0,0,1,1,6,
 0,0,1,5,6,
 0,0,2,1,6,
 0,0,0,0,7,
 0,0,0,0,6,
 0,0,0,0,5,
 0,0,0,0,3
]);

